; startingXbrush-knee
(set-info :status unknown)
(set-logic QF_AUFLIRA)
(declare-fun |HandLeft Norm| () Real)
(declare-fun |HandLeft Z| () Real)
(declare-fun |SpineMid Norm| () Real)
(declare-fun |SpineMid Z| () Real)
(declare-fun |SpineShoulder Norm| () Real)
(declare-fun |SpineShoulder Z| () Real)
(declare-fun |ShoulderLeft Norm| () Real)
(declare-fun |ShoulderLeft Z| () Real)
(declare-fun |ElbowLeft Norm| () Real)
(declare-fun |WristLeft Norm| () Real)
(declare-fun |HipLeft Norm| () Real)
(declare-fun |HipLeft Z| () Real)
(declare-fun |HandLeft Y| () Real)
(declare-fun |SpineMid Y| () Real)
(declare-fun |SpineShoulder Y| () Real)
(declare-fun |ShoulderLeft Y| () Real)
(declare-fun |HipLeft Y| () Real)
(declare-fun |HandLeft X| () Real)
(declare-fun |SpineMid X| () Real)
(declare-fun |SpineShoulder X| () Real)
(declare-fun |ShoulderLeft X| () Real)
(declare-fun |HipLeft X| () Real)
(declare-fun |ElbowRight Norm| () Real)
(declare-fun |ShoulderRight Norm| () Real)
(declare-fun |ShoulderRight Z| () Real)
(declare-fun |ShoulderRight Y| () Real)
(declare-fun |ShoulderRight X| () Real)
(declare-fun |FootRight Norm| () Real)
(declare-fun |FootRight Z| () Real)
(declare-fun |HipRight Norm| () Real)
(declare-fun |HipRight Z| () Real)
(declare-fun |KneeRight Norm| () Real)
(declare-fun |KneeRight Z| () Real)
(declare-fun |AnkleRight Norm| () Real)
(declare-fun |AnkleRight Z| () Real)
(declare-fun |FootLeft Norm| () Real)
(declare-fun |FootLeft Z| () Real)
(declare-fun |KneeLeft Norm| () Real)
(declare-fun |AnkleLeft Norm| () Real)
(declare-fun |HandRight Norm| () Real)
(declare-fun |HandRight Z| () Real)
(declare-fun |WristRight Norm| () Real)
(declare-fun |HandRight Y| () Real)
(declare-fun |HandRight X| () Real)
(declare-fun |AnkleLeft Z| () Real)
(declare-fun |AnkleLeft Y| () Real)
(declare-fun |KneeRight Y| () Real)
(declare-fun |AnkleLeft X| () Real)
(declare-fun |KneeRight X| () Real)
(declare-fun |KneeLeft Z| () Real)
(declare-fun |KneeLeft Y| () Real)
(declare-fun |KneeLeft X| () Real)
(declare-fun |ThumbRight Z| () Real)
(declare-fun |ThumbRight Y| () Real)
(declare-fun |ThumbRight X| () Real)
(assert
(let ((?x5357 (* |HandLeft Z| |HandLeft Norm|)))
(let ((?x159 (* |SpineMid Z| |SpineMid Norm|)))
(let ((?x435 (* |SpineShoulder Z| |SpineShoulder Norm|)))
(let ((?x420 (* |ShoulderLeft Z| |ShoulderLeft Norm|)))
(let ((?x169 (* (/ 433.0 500.0) 0.0)))
(let ((?x170 (* (~ (/ 1.0 2.0)) (~ 1.0))))
(let ((?x393 (+ ?x170 ?x169)))
(let ((?x172 (* (/ 1.0 2.0) (~ 1.0))))
(let ((?x392 (+ ?x172 ?x169)))
(let (($x134 (>= (~ 1.0) 0.0)))
(let ((?x394 (ite $x134 ?x392 ?x393)))
(let ((?x179 (* (~ (/ 1.0 2.0)) 0.0)))
(let ((?x3898 (+ ?x179 ?x169)))
(let ((?x176 (* (/ 1.0 2.0) 0.0)))
(let ((?x5101 (+ ?x176 ?x169)))
(let (($x112 (>= 0.0 0.0)))
(let ((?x5103 (ite $x112 ?x5101 ?x3898)))
(let ((?x135 (- 0.0 (~ 1.0))))
(let ((?x136 (ite $x134 (~ 1.0) ?x135)))
(let ((?x113 (- 0.0 0.0)))
(let ((?x114 (ite $x112 0.0 ?x113)))
(let (($x4784 (>= ?x114 ?x136)))
(let ((?x395 (ite $x4784 ?x5103 ?x394)))
(let ((?x177 (* (/ 433.0 500.0) (~ 1.0))))
(let ((?x348 (+ ?x177 ?x176)))
(let ((?x347 (+ ?x177 ?x179)))
(let ((?x349 (ite $x134 ?x347 ?x348)))
(let ((?x391 (ite $x4784 (~ 1.0) ?x349)))
(let ((?x7215 (* (/ 7.0 80.0) ?x391)))
(let ((?x3498 (* (/ 249.0 250.0) ?x395)))
(let (($x10937 (>= ?x395 0.0)))
(let ((?x10891 (- 0.0 ?x395)))
(let ((?x558 (ite $x10937 ?x395 ?x10891)))
(let ((?x5213 (+ ?x169 ?x176)))
(let ((?x4162 (+ ?x169 ?x179)))
(let ((?x5471 (ite $x112 ?x4162 ?x5213)))
(let ((?x346 (ite $x4784 ?x5471 0.0)))
(let ((?x10162 (- 0.0 ?x346)))
(let (($x10715 (>= ?x346 0.0)))
(let ((?x1266 (ite $x10715 ?x346 ?x10162)))
(let (($x9839 (>= ?x1266 ?x558)))
(let ((?x7735 (ite $x9839 ?x395 (ite $x10937 (+ ?x3498 (* (~ (/ 7.0 80.0)) ?x391)) (+ ?x3498 ?x7215)))))
(let ((?x4357 (+ 0.0 ?x5357)))
(let ((?x6460 (+ (+ (+ ?x4357 (* ?x7735 |WristLeft Norm|)) (* ?x395 |ElbowLeft Norm|)) ?x420)))
(let ((?x258 (* |HipLeft Z| |HipLeft Norm|)))
(let ((?x6537 (+ 0.0 ?x258)))
(let ((?x6544 (+ ?x6537 ?x258)))
(let ((?x10117 (- ?x6544 (+ (+ (+ ?x6460 ?x435) ?x159) ?x5357))))
(let ((?x10799 (ite (>= ?x10117 0.0) ?x10117 (- 0.0 ?x10117))))
(let ((?x5556 (* |HandLeft Y| |HandLeft Norm|)))
(let ((?x443 (* |SpineMid Y| |SpineMid Norm|)))
(let ((?x427 (* |SpineShoulder Y| |SpineShoulder Norm|)))
(let ((?x417 (* |ShoulderLeft Y| |ShoulderLeft Norm|)))
(let ((?x8530 (ite $x10937 (+ (* (/ 7.0 80.0) ?x395) (* (/ 249.0 250.0) ?x391)) (+ (* (~ (/ 7.0 80.0)) ?x395) (* (/ 249.0 250.0) ?x391)))))
(let ((?x6259 (ite $x10715 (+ (* (/ 7.0 80.0) ?x346) (* (/ 249.0 250.0) ?x391)) (+ (* (~ (/ 7.0 80.0)) ?x346) (* (/ 249.0 250.0) ?x391)))))
(let ((?x3496 (ite $x9839 ?x6259 ?x8530)))
(let ((?x3426 (+ 0.0 ?x5556)))
(let ((?x7326 (+ (+ (+ ?x3426 (* ?x3496 |WristLeft Norm|)) (* ?x391 |ElbowLeft Norm|)) ?x417)))
(let ((?x257 (* |HipLeft Y| |HipLeft Norm|)))
(let ((?x6430 (+ 0.0 ?x257)))
(let ((?x6588 (+ ?x6430 ?x257)))
(let ((?x6343 (- ?x6588 (+ (+ (+ ?x7326 ?x427) ?x443) ?x5556))))
(let ((?x9845 (ite (>= ?x6343 0.0) ?x6343 (- 0.0 ?x6343))))
(let ((?x5403 (* |HandLeft X| |HandLeft Norm|)))
(let ((?x441 (* |SpineMid X| |SpineMid Norm|)))
(let ((?x426 (* |SpineShoulder X| |SpineShoulder Norm|)))
(let ((?x416 (* |ShoulderLeft X| |ShoulderLeft Norm|)))
(let ((?x8932 (ite $x10715 (+ (* (/ 249.0 250.0) ?x346) (* (~ (/ 7.0 80.0)) ?x391)) (+ (* (/ 249.0 250.0) ?x346) ?x7215))))
(let ((?x6996 (ite $x9839 ?x8932 ?x346)))
(let ((?x4526 (+ 0.0 ?x5403)))
(let ((?x7474 (+ (+ (+ ?x4526 (* ?x6996 |WristLeft Norm|)) (* ?x346 |ElbowLeft Norm|)) ?x416)))
(let ((?x256 (* |HipLeft X| |HipLeft Norm|)))
(let ((?x6894 (+ 0.0 ?x256)))
(let ((?x6584 (+ ?x6894 ?x256)))
(let ((?x5084 (- ?x6584 (+ (+ (+ ?x7474 ?x426) ?x441) ?x5403))))
(let ((?x10415 (ite (>= ?x5084 0.0) ?x5084 (- 0.0 ?x5084))))
(let ((?x10540 (ite (>= ?x10415 ?x9845) ?x10415 ?x9845)))
(let ((?x6594 (* (/ 433.0 500.0) 1.0)))
(let ((?x6919 (+ ?x6594 ?x179)))
(let ((?x6121 (+ ?x6594 ?x176)))
(let (($x350 (>= 1.0 0.0)))
(let ((?x4940 (ite $x350 ?x6121 ?x6919)))
(let ((?x351 (- 0.0 1.0)))
(let ((?x352 (ite $x350 1.0 ?x351)))
(let (($x5024 (>= ?x114 ?x352)))
(let ((?x4943 (ite $x5024 1.0 ?x4940)))
(let ((?x116 (* (/ 193.0 200.0) 0.0)))
(let ((?x356 (* (/ 129.0 500.0) 1.0)))
(let ((?x357 (+ ?x356 ?x116)))
(let ((?x10825 (* (ite $x5024 1.0 (ite $x350 (+ ?x356 (* (~ (/ 193.0 200.0)) 0.0)) ?x357)) |WristLeft Norm|)))
(let ((?x11379 (+ (+ (+ (+ (+ ?x4357 ?x10825) (* ?x4943 |ElbowLeft Norm|)) ?x420) ?x435) ?x159)))
(let ((?x194 (* (/ 171.0 500.0) 0.0)))
(let ((?x187 (* (/ 939.0 1000.0) 0.0)))
(let ((?x321 (+ ?x187 ?x194)))
(let ((?x197 (* (~ (/ 171.0 500.0)) 0.0)))
(let ((?x322 (+ ?x187 ?x197)))
(let ((?x389 (ite $x112 ?x322 ?x321)))
(let ((?x5576 (ite $x5024 ?x389 0.0)))
(let ((?x6214 (* (~ (/ 171.0 500.0)) ?x5576)))
(let ((?x3828 (* (/ 939.0 1000.0) 1.0)))
(let ((?x5439 (+ ?x3828 ?x194)))
(let ((?x4064 (+ ?x3828 ?x197)))
(let ((?x4293 (ite $x350 ?x4064 ?x5439)))
(let ((?x4699 (ite $x5024 1.0 ?x4293)))
(let ((?x6640 (* (/ 939.0 1000.0) ?x4699)))
(let ((?x6186 (+ ?x6640 ?x6214)))
(let ((?x6223 (* (/ 171.0 500.0) ?x5576)))
(let ((?x6614 (+ ?x6640 ?x6223)))
(let (($x5917 (>= ?x4699 0.0)))
(let ((?x6821 (ite $x5917 ?x6614 ?x6186)))
(let ((?x5179 (- 0.0 ?x4699)))
(let ((?x6270 (ite $x5917 ?x4699 ?x5179)))
(let ((?x4166 (* (~ (/ 171.0 500.0)) 1.0)))
(let ((?x4618 (+ ?x4166 ?x187)))
(let ((?x5110 (* (/ 171.0 500.0) 1.0)))
(let ((?x3672 (+ ?x5110 ?x187)))
(let ((?x4560 (ite $x350 ?x3672 ?x4618)))
(let ((?x313 (+ ?x197 ?x187)))
(let ((?x314 (+ ?x194 ?x187)))
(let ((?x385 (ite $x112 ?x314 ?x313)))
(let ((?x5485 (ite $x5024 ?x385 ?x4560)))
(let ((?x5934 (- 0.0 ?x5485)))
(let (($x6151 (>= ?x5485 0.0)))
(let ((?x5914 (ite $x6151 ?x5485 ?x5934)))
(let (($x7862 (>= ?x5914 ?x6270)))
(let ((?x7952 (ite $x7862 ?x4699 ?x6821)))
(let ((?x7739 (* ?x7952 |ElbowRight Norm|)))
(let ((?x4101 (* |ShoulderRight Z| |ShoulderRight Norm|)))
(let ((?x7748 (+ 0.0 ?x7739)))
(let ((?x7708 (+ ?x7748 ?x4101)))
(let ((?x7971 (+ ?x7708 ?x435)))
(let ((?x7752 (+ ?x7971 ?x159)))
(let ((?x7779 (+ ?x7752 ?x7739)))
(let ((?x10967 (- ?x7779 (+ ?x11379 ?x5357))))
(let ((?x7035 (ite (>= ?x10967 0.0) ?x10967 (- 0.0 ?x10967))))
(let ((?x6426 (* (/ 1.0 2.0) 1.0)))
(let ((?x7006 (+ ?x6426 ?x169)))
(let ((?x6458 (* (~ (/ 1.0 2.0)) 1.0)))
(let ((?x6448 (+ ?x6458 ?x169)))
(let ((?x4934 (ite $x350 ?x6448 ?x7006)))
(let ((?x4932 (ite $x112 ?x3898 ?x5101)))
(let ((?x4937 (ite $x5024 ?x4932 ?x4934)))
(let ((?x123 (* (/ 129.0 500.0) 0.0)))
(let ((?x363 (* (/ 193.0 200.0) 1.0)))
(let ((?x364 (+ ?x363 ?x123)))
(let ((?x2291 (ite $x5024 (ite $x112 (+ ?x116 ?x123) (+ (* (~ (/ 193.0 200.0)) 0.0) ?x123)) (ite $x350 ?x364 (+ (* (~ (/ 193.0 200.0)) 1.0) ?x123)))))
(let ((?x11058 (+ (+ (+ ?x3426 (* ?x2291 |WristLeft Norm|)) (* ?x4937 |ElbowLeft Norm|)) ?x417)))
(let ((?x3786 (* (/ 939.0 1000.0) ?x5576)))
(let ((?x6016 (* (/ 171.0 500.0) ?x4699)))
(let ((?x6613 (+ ?x6016 ?x3786)))
(let ((?x5941 (* (~ (/ 171.0 500.0)) ?x4699)))
(let ((?x6268 (+ ?x5941 ?x3786)))
(let ((?x7269 (ite $x5917 ?x6268 ?x6613)))
(let ((?x6048 (* (/ 171.0 500.0) ?x5485)))
(let ((?x6189 (+ ?x6048 ?x3786)))
(let ((?x6253 (* (~ (/ 171.0 500.0)) ?x5485)))
(let ((?x6636 (+ ?x6253 ?x3786)))
(let ((?x7081 (ite $x6151 ?x6636 ?x6189)))
(let ((?x7649 (ite $x7862 ?x7081 ?x7269)))
(let ((?x7488 (* ?x7649 |ElbowRight Norm|)))
(let ((?x5302 (* |ShoulderRight Y| |ShoulderRight Norm|)))
(let ((?x7745 (+ 0.0 ?x7488)))
(let ((?x6763 (+ ?x7745 ?x5302)))
(let ((?x7963 (+ ?x6763 ?x427)))
(let ((?x7532 (+ ?x7963 ?x443)))
(let ((?x7959 (+ ?x7532 ?x7488)))
(let ((?x6870 (- ?x7959 (+ (+ (+ ?x11058 ?x427) ?x443) ?x5556))))
(let ((?x3976 (ite (>= ?x6870 0.0) ?x6870 (- 0.0 ?x6870))))
(let ((?x3514 (* (ite $x5024 (ite $x112 (+ ?x123 (* (~ (/ 193.0 200.0)) 0.0)) (+ ?x123 ?x116)) 0.0) |WristLeft Norm|)))
(let ((?x10526 (+ (+ ?x4526 ?x3514) (* (ite $x5024 (ite $x112 ?x5213 ?x4162) 0.0) |ElbowLeft Norm|))))
(let ((?x7261 (* (/ 939.0 1000.0) ?x5485)))
(let ((?x7263 (+ ?x7261 ?x6214)))
(let ((?x7264 (+ ?x7261 ?x6223)))
(let ((?x7270 (ite $x6151 ?x7264 ?x7263)))
(let ((?x7663 (ite $x7862 ?x7270 ?x5485)))
(let ((?x7957 (* ?x7663 |ElbowRight Norm|)))
(let ((?x5113 (* |ShoulderRight X| |ShoulderRight Norm|)))
(let ((?x7743 (+ 0.0 ?x7957)))
(let ((?x7763 (+ ?x7743 ?x5113)))
(let ((?x7962 (+ ?x7763 ?x426)))
(let ((?x7973 (+ ?x7962 ?x441)))
(let ((?x7955 (+ ?x7973 ?x7957)))
(let ((?x2227 (- ?x7955 (+ (+ (+ (+ ?x10526 ?x416) ?x426) ?x441) ?x5403))))
(let ((?x10594 (ite (>= ?x2227 0.0) ?x2227 (- 0.0 ?x2227))))
(let ((?x1596 (ite (>= ?x10594 ?x3976) ?x10594 ?x3976)))
(let ((?x7075 (* |FootRight Z| |FootRight Norm|)))
(let ((?x279 (* |HipRight Z| |HipRight Norm|)))
(let ((?x273 (* |KneeRight Z| |KneeRight Norm|)))
(let ((?x267 (* |AnkleRight Z| |AnkleRight Norm|)))
(let ((?x7080 (+ 0.0 ?x7075)))
(let ((?x6596 (+ ?x7080 ?x267)))
(let ((?x7090 (+ ?x6596 ?x273)))
(let ((?x7265 (+ ?x7090 ?x279)))
(let ((?x7283 (+ ?x7265 ?x7075)))
(let ((?x5646 (- ?x7283 (/ 1.0 10.0))))
(let ((?x6892 (* |FootLeft Z| |FootLeft Norm|)))
(let ((?x7260 (ite $x4784 ?x389 0.0)))
(let ((?x6119 (* (~ (/ 171.0 500.0)) ?x7260)))
(let ((?x188 (* (~ (/ 171.0 500.0)) (~ 1.0))))
(let ((?x411 (+ ?x188 ?x187)))
(let ((?x190 (* (/ 171.0 500.0) (~ 1.0))))
(let ((?x311 (+ ?x190 ?x187)))
(let ((?x384 (ite $x134 ?x311 ?x411)))
(let ((?x7267 (ite $x4784 ?x385 ?x384)))
(let ((?x9798 (* (/ 939.0 1000.0) ?x7267)))
(let ((?x6551 (+ ?x9798 ?x6119)))
(let ((?x6664 (* (/ 171.0 500.0) ?x7260)))
(let ((?x8409 (+ ?x9798 ?x6664)))
(let (($x6321 (>= ?x7267 0.0)))
(let ((?x9647 (ite $x6321 ?x8409 ?x6551)))
(let ((?x6070 (- 0.0 ?x7267)))
(let ((?x6598 (ite $x6321 ?x7267 ?x6070)))
(let ((?x195 (* (/ 939.0 1000.0) (~ 1.0))))
(let ((?x317 (+ ?x195 ?x194)))
(let ((?x318 (+ ?x195 ?x197)))
(let ((?x387 (ite $x134 ?x318 ?x317)))
(let ((?x7266 (ite $x4784 (~ 1.0) ?x387)))
(let ((?x6822 (- 0.0 ?x7266)))
(let (($x7082 (>= ?x7266 0.0)))
(let ((?x7272 (ite $x7082 ?x7266 ?x6822)))
(let (($x6959 (>= ?x7272 ?x6598)))
(let ((?x2209 (ite $x6959 ?x7267 ?x9647)))
(let ((?x11037 (* ?x2209 |KneeLeft Norm|)))
(let ((?x434 (* 0.0 |AnkleLeft Norm|)))
(let ((?x6785 (+ 0.0 ?x6892)))
(let ((?x11251 (+ ?x6785 ?x434)))
(let ((?x9221 (+ ?x11251 ?x11037)))
(let ((?x6946 (+ ?x9221 ?x258)))
(let ((?x6109 (+ ?x6946 ?x6892)))
(let ((?x3920 (* |HandRight Z| |HandRight Norm|)))
(let ((?x5222 (* (~ (/ 321.0 500.0)) ?x5576)))
(let ((?x5328 (* (/ 383.0 500.0) ?x4699)))
(let ((?x5362 (+ ?x5328 ?x5222)))
(let ((?x5065 (* (/ 321.0 500.0) ?x5576)))
(let ((?x535 (+ ?x5328 ?x5065)))
(let ((?x5465 (ite $x5917 ?x535 ?x5362)))
(let ((?x4879 (ite $x7862 ?x4699 ?x5465)))
(let ((?x5111 (+ 0.0 ?x3920)))
(let ((?x2656 (+ (+ ?x5111 (* (ite $x7862 ?x4699 (ite $x5917 ?x5362 ?x535)) |WristRight Norm|)) (* ?x4879 |ElbowRight Norm|))))
(let ((?x323 (ite $x112 ?x321 ?x322)))
(let ((?x6169 (ite $x5024 ?x323 0.0)))
(let ((?x5384 (* (~ (/ 171.0 500.0)) ?x6169)))
(let ((?x6628 (ite $x350 ?x5439 ?x4064)))
(let ((?x6199 (ite $x5024 1.0 ?x6628)))
(let ((?x5340 (* (/ 939.0 1000.0) ?x6199)))
(let ((?x3906 (+ ?x5340 ?x5384)))
(let ((?x3623 (* (/ 171.0 500.0) ?x6169)))
(let ((?x3673 (+ ?x5340 ?x3623)))
(let (($x4786 (>= ?x6199 0.0)))
(let ((?x5107 (ite $x4786 ?x3673 ?x3906)))
(let ((?x4768 (- 0.0 ?x6199)))
(let ((?x5454 (ite $x4786 ?x6199 ?x4768)))
(let ((?x6242 (ite $x350 ?x4618 ?x3672)))
(let ((?x315 (ite $x112 ?x313 ?x314)))
(let ((?x4558 (ite $x5024 ?x315 ?x6242)))
(let ((?x4763 (- 0.0 ?x4558)))
(let (($x4344 (>= ?x4558 0.0)))
(let ((?x5460 (ite $x4344 ?x4558 ?x4763)))
(let (($x5087 (>= ?x5460 ?x5454)))
(let ((?x4042 (ite $x5087 ?x6199 ?x5107)))
(let ((?x5453 (* ?x4042 |ElbowLeft Norm|)))
(let ((?x5508 (+ (+ (+ (+ (+ 0.0 ?x5453) ?x420) ?x435) ?x159) ?x5453)))
(let ((?x1953 (- ?x5508 (+ (+ (+ (+ ?x2656 ?x4101) ?x435) ?x159) ?x3920))))
(let ((?x11814 (ite (>= ?x1953 0.0) ?x1953 (- 0.0 ?x1953))))
(let ((?x4421 (* |HandRight Y| |HandRight Norm|)))
(let ((?x4167 (* (/ 383.0 500.0) ?x5576)))
(let ((?x5134 (* (/ 321.0 500.0) ?x4699)))
(let ((?x5572 (+ ?x5134 ?x4167)))
(let ((?x5263 (* (~ (/ 321.0 500.0)) ?x4699)))
(let ((?x4701 (+ ?x5263 ?x4167)))
(let ((?x4150 (ite $x5917 ?x4701 ?x5572)))
(let ((?x5106 (* (/ 321.0 500.0) ?x5485)))
(let ((?x4485 (+ ?x5106 ?x4167)))
(let ((?x4565 (* (~ (/ 321.0 500.0)) ?x5485)))
(let ((?x3951 (+ ?x4565 ?x4167)))
(let ((?x3386 (ite $x6151 ?x3951 ?x4485)))
(let ((?x5560 (ite $x7862 ?x3386 ?x4150)))
(let ((?x9156 (ite $x5917 ?x5572 ?x4701)))
(let ((?x11332 (ite $x6151 ?x4485 ?x3951)))
(let ((?x11951 (ite $x7862 ?x11332 ?x9156)))
(let ((?x4697 (+ 0.0 ?x4421)))
(let ((?x7601 (+ (+ (+ ?x4697 (* ?x11951 |WristRight Norm|)) (* ?x5560 |ElbowRight Norm|)) ?x5302)))
(let ((?x3913 (* (/ 939.0 1000.0) ?x6169)))
(let ((?x4606 (* (/ 171.0 500.0) ?x6199)))
(let ((?x5392 (+ ?x4606 ?x3913)))
(let ((?x5470 (* (~ (/ 171.0 500.0)) ?x6199)))
(let ((?x5155 (+ ?x5470 ?x3913)))
(let ((?x5232 (ite $x4786 ?x5155 ?x5392)))
(let ((?x5531 (* (/ 171.0 500.0) ?x4558)))
(let ((?x5486 (+ ?x5531 ?x3913)))
(let ((?x5286 (* (~ (/ 171.0 500.0)) ?x4558)))
(let ((?x5546 (+ ?x5286 ?x3913)))
(let ((?x5484 (ite $x4344 ?x5546 ?x5486)))
(let ((?x4534 (ite $x5087 ?x5484 ?x5232)))
(let ((?x5390 (* ?x4534 |ElbowLeft Norm|)))
(let ((?x5507 (+ (+ (+ (+ (+ 0.0 ?x5390) ?x417) ?x427) ?x443) ?x5390)))
(let ((?x3273 (- ?x5507 (+ (+ (+ ?x7601 ?x427) ?x443) ?x4421))))
(let ((?x7882 (ite (>= ?x3273 0.0) ?x3273 (- 0.0 ?x3273))))
(let ((?x5582 (* |HandRight X| |HandRight Norm|)))
(let ((?x4892 (* (/ 383.0 500.0) ?x5485)))
(let ((?x4876 (+ ?x4892 ?x5222)))
(let ((?x4640 (+ ?x4892 ?x5065)))
(let ((?x5061 (ite $x6151 ?x4640 ?x4876)))
(let ((?x5049 (ite $x7862 ?x5061 ?x5485)))
(let ((?x4842 (+ 0.0 ?x5582)))
(let ((?x7514 (+ (+ ?x4842 (* (ite $x7862 (ite $x6151 ?x4876 ?x4640) ?x5485) |WristRight Norm|)) (* ?x5049 |ElbowRight Norm|))))
(let ((?x5122 (* (/ 939.0 1000.0) ?x4558)))
(let ((?x3915 (+ ?x5122 ?x5384)))
(let ((?x4899 (+ ?x5122 ?x3623)))
(let ((?x5547 (ite $x4344 ?x4899 ?x3915)))
(let ((?x4851 (ite $x5087 ?x5547 ?x4558)))
(let ((?x5124 (* ?x4851 |ElbowLeft Norm|)))
(let ((?x5502 (+ (+ (+ (+ (+ 0.0 ?x5124) ?x416) ?x426) ?x441) ?x5124)))
(let ((?x3272 (- ?x5502 (+ (+ (+ (+ ?x7514 ?x5113) ?x426) ?x441) ?x5582))))
(let ((?x10922 (ite (>= ?x3272 0.0) ?x3272 (- 0.0 ?x3272))))
(let ((?x6735 (ite (>= ?x10922 ?x7882) ?x10922 ?x7882)))
(let ((?x173 (+ ?x169 ?x172)))
(let ((?x171 (+ ?x169 ?x170)))
(let ((?x174 (ite $x112 ?x171 ?x173)))
(let (($x115 (>= ?x114 ?x114)))
(let ((?x175 (ite $x115 ?x174 0.0)))
(let ((?x7577 (* (~ (/ 129.0 500.0)) ?x175)))
(let ((?x183 (ite $x115 0.0 ?x174)))
(let ((?x7581 (* (/ 193.0 200.0) ?x183)))
(let ((?x7583 (+ ?x7581 ?x7577)))
(let ((?x7575 (* (/ 129.0 500.0) ?x175)))
(let ((?x7582 (+ ?x7581 ?x7575)))
(let (($x6950 (>= ?x183 0.0)))
(let ((?x7584 (ite $x6950 ?x7582 ?x7583)))
(let ((?x6376 (- 0.0 ?x183)))
(let ((?x6176 (ite $x6950 ?x183 ?x6376)))
(let ((?x180 (+ ?x179 ?x177)))
(let ((?x178 (+ ?x176 ?x177)))
(let ((?x181 (ite $x112 ?x178 ?x180)))
(let ((?x182 (ite $x115 ?x181 ?x181)))
(let ((?x6813 (- 0.0 ?x182)))
(let (($x7500 (>= ?x182 0.0)))
(let ((?x6812 (ite $x7500 ?x182 ?x6813)))
(let (($x7878 (>= ?x6812 ?x6176)))
(let ((?x7585 (ite $x7878 ?x183 ?x7584)))
(let ((?x6373 (* (/ 193.0 200.0) ?x175)))
(let ((?x7572 (* (/ 129.0 500.0) ?x183)))
(let ((?x7573 (+ ?x7572 ?x6373)))
(let ((?x7466 (* (~ (/ 129.0 500.0)) ?x183)))
(let ((?x7571 (+ ?x7466 ?x6373)))
(let ((?x7467 (ite $x6950 ?x7571 ?x7573)))
(let ((?x7463 (* (/ 129.0 500.0) ?x182)))
(let ((?x7570 (+ ?x7463 ?x6373)))
(let ((?x7881 (* (~ (/ 129.0 500.0)) ?x182)))
(let ((?x6956 (+ ?x7881 ?x6373)))
(let ((?x7465 (ite $x7500 ?x6956 ?x7570)))
(let ((?x7468 (ite $x7878 ?x7465 ?x7467)))
(let ((?x9917 (* (/ 7.0 80.0) ?x7468)))
(let ((?x9687 (* (/ 249.0 250.0) ?x7585)))
(let ((?x9358 (+ ?x9687 ?x9917)))
(let ((?x9545 (* (~ (/ 7.0 80.0)) ?x7468)))
(let ((?x2839 (+ ?x9687 ?x9545)))
(let (($x5097 (>= ?x7585 0.0)))
(let ((?x9361 (ite $x5097 ?x2839 ?x9358)))
(let ((?x9853 (- 0.0 ?x7585)))
(let ((?x9690 (ite $x5097 ?x7585 ?x9853)))
(let ((?x7574 (* (/ 193.0 200.0) ?x182)))
(let ((?x7578 (+ ?x7574 ?x7577)))
(let ((?x7576 (+ ?x7574 ?x7575)))
(let ((?x7579 (ite $x7500 ?x7576 ?x7578)))
(let ((?x7580 (ite $x7878 ?x7579 ?x182)))
(let ((?x5711 (- 0.0 ?x7580)))
(let (($x1076 (>= ?x7580 0.0)))
(let ((?x8734 (ite $x1076 ?x7580 ?x5711)))
(let (($x9815 (>= ?x8734 ?x9690)))
(let ((?x9203 (ite $x9815 ?x7585 ?x9361)))
(let ((?x3972 (+ (+ (+ ?x4357 (* ?x9203 |WristLeft Norm|)) (* ?x7585 |ElbowLeft Norm|)) ?x420)))
(let ((?x3501 (- ?x6544 (+ (+ (+ ?x3972 ?x435) ?x159) ?x5357))))
(let ((?x7249 (ite (>= ?x3501 0.0) ?x3501 (- 0.0 ?x3501))))
(let ((?x9334 (* (/ 249.0 250.0) ?x7580)))
(let ((?x9683 (+ ?x9334 ?x9917)))
(let ((?x9681 (+ ?x9334 ?x9545)))
(let ((?x9212 (ite $x1076 ?x9681 ?x9683)))
(let ((?x9684 (ite $x9815 ?x9212 ?x7580)))
(let ((?x4409 (+ (+ (+ ?x3426 (* ?x9684 |WristLeft Norm|)) (* ?x7580 |ElbowLeft Norm|)) ?x417)))
(let ((?x6754 (- ?x6588 (+ (+ (+ ?x4409 ?x427) ?x443) ?x5556))))
(let ((?x7409 (ite (>= ?x6754 0.0) ?x6754 (- 0.0 ?x6754))))
(let ((?x9777 (* (/ 249.0 250.0) ?x7468)))
(let ((?x8547 (* (~ (/ 7.0 80.0)) ?x7585)))
(let ((?x5075 (+ ?x8547 ?x9777)))
(let ((?x9028 (* (/ 7.0 80.0) ?x7585)))
(let ((?x8808 (+ ?x9028 ?x9777)))
(let ((?x5070 (ite $x5097 ?x8808 ?x5075)))
(let ((?x9760 (* (~ (/ 7.0 80.0)) ?x7580)))
(let ((?x9104 (+ ?x9760 ?x9777)))
(let ((?x9895 (* (/ 7.0 80.0) ?x7580)))
(let ((?x9722 (+ ?x9895 ?x9777)))
(let ((?x8777 (ite $x1076 ?x9722 ?x9104)))
(let ((?x5000 (ite $x9815 ?x8777 ?x5070)))
(let ((?x2225 (+ (+ (+ ?x4526 (* ?x5000 |WristLeft Norm|)) (* ?x7468 |ElbowLeft Norm|)) ?x416)))
(let ((?x2878 (- ?x6584 (+ (+ (+ ?x2225 ?x426) ?x441) ?x5403))))
(let ((?x3291 (ite (>= ?x2878 0.0) ?x2878 (- 0.0 ?x2878))))
(let ((?x11122 (ite (>= ?x3291 ?x7409) ?x3291 ?x7409)))
(let ((?x5635 (* (~ (/ 1.0 2.0)) ?x6169)))
(let ((?x5518 (* (/ 433.0 500.0) ?x6199)))
(let ((?x4320 (+ ?x5518 ?x5635)))
(let ((?x5634 (* (/ 1.0 2.0) ?x6169)))
(let ((?x5504 (+ ?x5518 ?x5634)))
(let ((?x4827 (ite $x4786 ?x5504 ?x4320)))
(let ((?x4747 (ite $x5087 ?x6199 ?x4827)))
(let ((?x6970 (+ (+ ?x4357 (* (ite $x5087 ?x6199 (ite $x4786 ?x4320 ?x5504)) |WristLeft Norm|)) (* ?x4747 |ElbowLeft Norm|))))
(let ((?x6638 (- ?x7779 (+ (+ (+ (+ ?x6970 ?x420) ?x435) ?x159) ?x5357))))
(let ((?x7342 (ite (>= ?x6638 0.0) ?x6638 (- 0.0 ?x6638))))
(let ((?x5630 (* (/ 433.0 500.0) ?x6169)))
(let ((?x3642 (* (/ 1.0 2.0) ?x6199)))
(let ((?x5054 (+ ?x3642 ?x5630)))
(let ((?x5537 (* (~ (/ 1.0 2.0)) ?x6199)))
(let ((?x5529 (+ ?x5537 ?x5630)))
(let ((?x5535 (ite $x4786 ?x5529 ?x5054)))
(let ((?x5632 (* (/ 1.0 2.0) ?x4558)))
(let ((?x5052 (+ ?x5632 ?x5630)))
(let ((?x5640 (* (~ (/ 1.0 2.0)) ?x4558)))
(let ((?x5645 (+ ?x5640 ?x5630)))
(let ((?x4683 (ite $x4344 ?x5645 ?x5052)))
(let ((?x5516 (ite $x5087 ?x4683 ?x5535)))
(let ((?x10222 (ite $x4786 ?x5054 ?x5529)))
(let ((?x10282 (ite $x4344 ?x5052 ?x5645)))
(let ((?x10380 (ite $x5087 ?x10282 ?x10222)))
(let ((?x7675 (+ (+ (+ ?x3426 (* ?x10380 |WristLeft Norm|)) (* ?x5516 |ElbowLeft Norm|)) ?x417)))
(let ((?x7192 (- ?x7959 (+ (+ (+ ?x7675 ?x427) ?x443) ?x5556))))
(let ((?x7118 (ite (>= ?x7192 0.0) ?x7192 (- 0.0 ?x7192))))
(let ((?x5627 (* (/ 433.0 500.0) ?x4558)))
(let ((?x5639 (+ ?x5627 ?x5635)))
(let ((?x5619 (+ ?x5627 ?x5634)))
(let ((?x5641 (ite $x4344 ?x5619 ?x5639)))
(let ((?x5628 (ite $x5087 ?x5641 ?x4558)))
(let ((?x964 (+ (+ ?x4526 (* (ite $x5087 (ite $x4344 ?x5639 ?x5619) ?x4558) |WristLeft Norm|)) (* ?x5628 |ElbowLeft Norm|))))
(let ((?x5418 (- ?x7955 (+ (+ (+ (+ ?x964 ?x416) ?x426) ?x441) ?x5403))))
(let ((?x7498 (ite (>= ?x5418 0.0) ?x5418 (- 0.0 ?x5418))))
(let ((?x10075 (ite (>= ?x7498 ?x7118) ?x7498 ?x7118)))
(let (($x1877 (and true true)))
(let (($x7510 (and (and $x1877 (and true (< (ite (>= ?x10075 ?x7342) ?x10075 ?x7342) (/ 1.0 5.0)))) true)))
(let (($x6380 (and (and $x7510 (and true (< (ite (>= ?x11122 ?x7249) ?x11122 ?x7249) (/ 1.0 5.0)))) true)))
(let (($x8789 (and (and $x6380 (and true (< (ite (>= ?x6735 ?x11814) ?x6735 ?x11814) (/ 1.0 5.0)))) (and true (> ?x7283 (+ ?x6109 (/ 1.0 10.0)))))))
(let (($x10774 (and (and (and $x8789 (and true (< ?x6109 ?x5646))) true) (and true (< (ite (>= ?x1596 ?x7035) ?x1596 ?x7035) (/ 1.0 5.0))))))
(let (($x10971 (and (and $x10774 true) (and true (< (ite (>= ?x10540 ?x10799) ?x10540 ?x10799) (/ 1.0 5.0))))))
(let ((?x6247 (* (~ 1.0) |ElbowRight Norm|)))
(let ((?x11271 (* 1.0 |SpineMid Norm|)))
(let ((?x4285 (* 1.0 |SpineShoulder Norm|)))
(let ((?x6175 (+ 0.0 ?x6247)))
(let ((?x6580 (+ ?x6175 ?x5302)))
(let ((?x8207 (+ ?x6580 ?x4285)))
(let ((?x11011 (+ ?x8207 ?x11271)))
(let ((?x10914 (+ ?x11011 ?x6247)))
(let ((?x10532 (- ?x10914 (/ 1.0 10.0))))
(let (($x11183 (>= ?x6270 ?x5914)))
(let ((?x11147 (ite $x11183 ?x6821 ?x4699)))
(let ((?x3509 (* ?x11147 |WristRight Norm|)))
(let ((?x7116 (+ 0.0 ?x3509)))
(let ((?x5226 (+ ?x7116 ?x6247)))
(let ((?x10557 (+ ?x5226 ?x5302)))
(let ((?x2255 (+ ?x10557 ?x4285)))
(let ((?x1420 (+ ?x2255 ?x11271)))
(let ((?x1422 (+ ?x1420 ?x3509)))
(let (($x7876 (< ?x1422 ?x10532)))
(let ((?x9041 (ite $x5917 ?x6186 ?x6614)))
(let ((?x11006 (ite $x11183 ?x9041 ?x4699)))
(let ((?x11042 (* ?x11006 |WristLeft Norm|)))
(let ((?x6432 (* (~ 1.0) |ElbowLeft Norm|)))
(let ((?x1183 (+ 0.0 ?x11042)))
(let ((?x3963 (+ ?x1183 ?x6432)))
(let ((?x11217 (+ ?x3963 ?x417)))
(let ((?x8184 (+ ?x11217 ?x4285)))
(let ((?x3571 (+ ?x8184 ?x11271)))
(let ((?x11877 (+ ?x3571 ?x11042)))
(let (($x10274 (< ?x11877 ?x10532)))
(let ((?x7165 (+ 0.0 ?x6432)))
(let ((?x6101 (+ ?x7165 ?x417)))
(let ((?x10616 (+ ?x6101 ?x4285)))
(let ((?x2510 (+ ?x10616 ?x11271)))
(let ((?x2511 (+ ?x2510 ?x6432)))
(let ((?x624 (- ?x2511 (/ 1.0 10.0))))
(let (($x2266 (< ?x1422 ?x624)))
(let (($x10928 (< ?x11877 ?x624)))
(let (($x597 (and true $x10928)))
(let (($x1351 (and $x597 $x2266)))
(let (($x11682 (and $x1351 $x10274)))
(let (($x10812 (and $x11682 $x7876)))
(let ((?x7295 (- |KneeRight Z| |AnkleLeft Z|)))
(let ((?x6363 (- 0.0 ?x7295)))
(let (($x6338 (>= ?x7295 0.0)))
(let ((?x5940 (ite $x6338 ?x7295 ?x6363)))
(let ((?x6352 (- |KneeRight Y| |AnkleLeft Y|)))
(let ((?x6197 (- 0.0 ?x6352)))
(let (($x6650 (>= ?x6352 0.0)))
(let ((?x6337 (ite $x6650 ?x6352 ?x6197)))
(let ((?x6331 (- |KneeRight X| |AnkleLeft X|)))
(let ((?x6773 (- 0.0 ?x6331)))
(let (($x6768 (>= ?x6331 0.0)))
(let ((?x6060 (ite $x6768 ?x6331 ?x6773)))
(let (($x6532 (>= ?x6060 ?x6337)))
(let ((?x6577 (ite $x6532 ?x6060 ?x6337)))
(let (($x6471 (>= ?x6577 ?x5940)))
(let ((?x6520 (ite $x6471 ?x6577 ?x5940)))
(let (($x5939 (< ?x6520 (/ 347.0 1000.0))))
(let (($x6538 (not $x5939)))
(let ((?x7276 (- |KneeLeft Z| |AnkleLeft Z|)))
(let ((?x7288 (- 0.0 ?x7276)))
(let (($x7287 (>= ?x7276 0.0)))
(let ((?x7290 (ite $x7287 ?x7276 ?x7288)))
(let ((?x7275 (- |KneeLeft Y| |AnkleLeft Y|)))
(let ((?x7284 (- 0.0 ?x7275)))
(let (($x7282 (>= ?x7275 0.0)))
(let ((?x7285 (ite $x7282 ?x7275 ?x7284)))
(let ((?x7273 (- |KneeLeft X| |AnkleLeft X|)))
(let ((?x7279 (- 0.0 ?x7273)))
(let (($x7278 (>= ?x7273 0.0)))
(let ((?x7281 (ite $x7278 ?x7273 ?x7279)))
(let (($x7094 (>= ?x7281 ?x7285)))
(let ((?x7095 (ite $x7094 ?x7281 ?x7285)))
(let (($x7096 (>= ?x7095 ?x7290)))
(let ((?x7097 (ite $x7096 ?x7095 ?x7290)))
(let (($x7099 (< ?x7097 (/ 347.0 1000.0))))
(let (($x6204 (not $x7099)))
(let (($x6275 (and true $x6204)))
(let (($x6539 (and $x6275 $x6538)))
(let (($x11381 (and $x1877 $x6539)))
(let (($x6824 (and $x11381 true)))
(let (($x4787 (and $x6824 true)))
(let (($x11517 (and $x4787 $x10812)))
(let ((?x3957 (- |ThumbRight Z| |ThumbRight Z|)))
(let ((?x5304 (- 0.0 ?x3957)))
(let (($x5305 (>= ?x3957 0.0)))
(let ((?x5307 (ite $x5305 ?x3957 ?x5304)))
(let ((?x2491 (- |ThumbRight Y| |ThumbRight Y|)))
(let ((?x5299 (- 0.0 ?x2491)))
(let (($x5279 (>= ?x2491 0.0)))
(let ((?x5303 (ite $x5279 ?x2491 ?x5299)))
(let ((?x5477 (- |ThumbRight X| |ThumbRight X|)))
(let ((?x5278 (- 0.0 ?x5477)))
(let (($x3697 (>= ?x5477 0.0)))
(let ((?x5294 (ite $x3697 ?x5477 ?x5278)))
(let (($x5085 (>= ?x5294 ?x5303)))
(let ((?x4985 (ite $x5085 ?x5294 ?x5303)))
(let (($x4577 (>= ?x4985 ?x5307)))
(let ((?x3992 (ite $x4577 ?x4985 ?x5307)))
(let (($x5034 (< ?x3992 15.0)))
(let (($x1404 (and $x5034)))
(and $x1404 $x11517 $x10971)))))))))))))))))))))))))))))))))))))))))))))))))))))))))))))))))))))))))))))))))))))))))))))))))))))))))))))))))))))))))))))))))))))))))))))))))))))))))))))))))))))))))))))))))))))))))))))))))))))))))))))))))))))))))))))))))))))))))))))))))))))))))))))))))))))))))))))))))))))))))))))))))))))))))))))))))))))))))))))))))))))))))))))))))))))))))))))))))))))))))))))))))))))))))))))))))))))))))))))))))))))))))))))))))))))))))))))))))))))))))))))))))))))))))))))))))))))))))))))))))))))))))))))))))))))))))))))))))))))))))))))))))))))))))))))))))
(check-sat)
